Version identifier: 22.1.0.0 | 2022-03-09 | 1a383f8ce
CPXPARAM_Threads                                 1
CPXPARAM_MIP_Strategy_VariableSelect             3
CPXPARAM_TimeLimit                               600
Tried aggregator 1 time.
MIP Presolve eliminated 17 rows and 0 columns.
MIP Presolve modified 2 coefficients.
Reduced MIP has 1808 rows, 7501 columns, and 104229 nonzeros.
Reduced MIP has 7500 binaries, 0 generals, 0 SOSs, and 0 indicators.
Presolve time = 0.04 sec. (32.90 ticks)
Found incumbent of value 18.500000 after 0.11 sec. (85.60 ticks)
Probing time = 0.01 sec. (8.48 ticks)
Tried aggregator 1 time.
Detecting symmetries...
Reduced MIP has 1808 rows, 7501 columns, and 104229 nonzeros.
Reduced MIP has 7500 binaries, 0 generals, 0 SOSs, and 0 indicators.
Presolve time = 0.05 sec. (45.95 ticks)
Probing time = 0.01 sec. (8.48 ticks)
Clique table members: 301.
MIP emphasis: balance optimality and feasibility.
MIP search method: dynamic search.
Parallel mode: none, using 1 thread.
Root relaxation solution time = 0.05 sec. (48.49 ticks)

        Nodes                                         Cuts/
   Node  Left     Objective  IInf  Best Integer    Best Bound    ItCnt     Gap

*     0+    0                           18.5000        0.0000           100.00%
      0     0        0.0000    51       18.5000        0.0000      578  100.00%
*     0+    0                            0.5000        0.0000           100.00%
*     0+    0                            0.0000        0.0000             0.00%
      0     0        cutoff              0.0000        0.0000      578    0.00%
Elapsed time = 0.35 sec. (317.07 ticks, tree = 0.01 MB, solutions = 3)

Root node processing (before b&c):
  Real time             =    0.36 sec. (317.39 ticks)
Sequential b&c:
  Real time             =    0.00 sec. (0.00 ticks)
                          ------------
Total (root+branch&cut) =    0.36 sec. (317.39 ticks)
Primal:	0
Dual:	0
Status:	Optimal
Time:	0.39
Sequence:
	16
	16
	6
	17
	0
	3
	13
	1
	18
	9
	16
	9
	3
	20
	8
	12
	3
	2
	12
	12
	21
	3
	21
	3
	1
	4
	3
	3
	21
	13
	6
	21
	3
	3
	3
	16
	20
	3
	3
	0
	3
	14
	3
	0
	3
	10
	6
	9
	0
	3
	3
	3
	21
	7
	16
	3
	0
	0
	9
	3
	3
	6
	4
	16
	6
	6
	3
	3
	11
	3
	3
	5
	21
	6
	3
	3
	6
	0
	23
	4
	6
	12
	9
	0
	15
	8
	13
	6
	8
	23
	0
	4
	16
	16
	16
	5
	1
	13
	24
	20
	18
	7
	5
	24
	20
	20
	13
	21
	16
	21
	24
	13
	1
	12
	9
	17
	23
	6
	20
	10
	16
	6
	2
	17
	4
	16
	14
	12
	8
	20
	9
	6
	8
	15
	22
	20
	12
	9
	16
	14
	22
	15
	5
	14
	4
	18
	6
	9
	6
	19
	15
	2
	13
	9
	6
	6
	1
	9
	4
	1
	14
	22
	4
	7
	1
	20
	6
	21
	10
	6
	16
	11
	22
	13
	1
	5
	7
	16
	23
	15
	20
	12
	0
	6
	0
	6
	4
	6
	24
	12
	20
	0
	23
	13
	15
	17
	5
	16
	10
	21
	13
	0
	12
	21
	0
	22
	8
	15
	20
	0
	21
	16
	2
	9
	6
	18
	20
	20
	22
	11
	6
	8
	17
	4
	4
	22
	17
	4
	6
	21
	4
	14
	1
	16
	17
	4
	24
	16
	6
	6
	7
	14
	1
	4
	5
	5
	12
	16
	11
	5
	12
	12
	17
	10
	20
	23
	6
	1
	11
	6
	5
	12
	15
	20
	9
	21
	11
	4
	13
	21
	13
	24
	22
	0
	20
	8
	10
	0
	6
	0
	8
	5
	13
	1
	1
	16
	0
	5
	12
	0
	9
	10
	8
	6
	0
	22
	11
	6
	17
	20
